c WARNING: for repeatability, setting FPU to use double precision
c ============================[ Problem Statistics ]=============================
c |                                                                             |
c |  Number of variables:           250                                         |
c |  Number of clauses:            1065                                         |
c |  Parse time:                   0.00 s                                       |
c |  Eliminated clauses:           0.00 Mb                                      |
c |  Simplification time:          0.00 s                                       |
c |                                                                             |
c ============================[ Search Statistics ]==============================
c | Conflicts |          ORIGINAL         |          LEARNT          | Progress |
c |           |    Vars  Clauses Literals |    Limit  Clauses Lit/Cl |          |
c ===============================================================================
c |      5000 |     244     1060     3214 |      775     4368     14 |  0.002 % | 8 625 | 0 0.8 (0.8) 1.4 (1.4) 5 (5-10) 15000 0.02
c |     10000 |     244     1060     3214 |     1602     8710     14 |  0.002 % | 9 1111 | 0 0.8 (0.8) 1.4 (1.4) 5 (5-10) 15000 0.02
c |     15000 |     244     1060     3214 |     2399    13129     13 |  0.002 % | 9 1666 | 0 0.8 (0.8) 1.4 (1.4) 5 (5-10) 15000 0.02
c |     20000 |     244     1060     3214 |     3120    17005     14 |  0.002 % | 9 2222 | 0 0.8 (0.8) 1.4 (1.4) 5 (5-10) 15000 0.02
c |     25000 |     244     1060     3214 |     4057    21345     13 |  0.002 % | 9 2777 | 0 0.8 (0.8) 1.4 (1.4) 5 (5-10) 15000 0.02
c |     30000 |     244     1060     3214 |     4836    25797     13 |  0.002 % | 10 3000 | 0 0.8 (0.8) 1.4 (1.4) 5 (5-10) 15000 0.02
c |     35000 |     244     1060     3214 |     5782    15672     12 |  0.003 % | 10 3500 | 0 0.8 (0.8) 1.4 (1.4) 5 (5-10) 15000 0.02
c |     40000 |     244     1060     3214 |     6619    20051     12 |  0.002 % | 12 3333 | 0 0.8 (0.8) 1.4 (1.4) 5 (5-10) 15000 0.02
c |     45000 |     244     1060     3214 |     7262    24537     12 |  0.002 % | 25 1800 | 0 0.8 (0.8) 1.4 (1.4) 5 (5-10) 15000 0.02
c |     50000 |     244     1060     3214 |     8020    15487     12 |  0.002 % | 27 1851 | 0 0.8 (0.8) 1.4 (1.4) 5 (5-10) 15000 0.02
c |     55000 |     244     1060     3214 |     8676    20027     12 |  0.002 % | 29 1896 | 0 0.8 (0.8) 1.4 (1.4) 5 (5-10) 15000 0.02
c |     60000 |     244     1060     3214 |     9385    24555     12 |  0.002 % | 30 2000 | 0 0.8 (0.8) 1.4 (1.4) 5 (5-10) 15000 0.02
c |     65000 |     244     1060     3214 |    10139    15666     11 |  0.002 % | 30 2166 | 0 0.8 (0.8) 1.4 (1.4) 5 (5-10) 15000 0.02
c |     70000 |     244     1060     3214 |    11132    19957     11 |  0.003 % | 30 2333 | 0 0.8 (0.8) 1.4 (1.4) 5 (5-10) 15000 0.02
c |     75000 |     244     1060     3214 |    11732    24544     12 |  0.002 % | 41 1829 | 0 0.8 (0.8) 1.4 (1.4) 5 (5-10) 15000 0.02
c |     80000 |     244     1060     3214 |    12356    15779     11 |  0.002 % | 43 1860 | 0 0.8 (0.8) 1.4 (1.4) 5 (5-10) 15000 0.02
c |     85000 |     244     1060     3214 |    13171    20166     11 |  0.003 % | 43 1976 | 0 0.8 (0.8) 1.4 (1.4) 5 (5-10) 15000 0.02
c |     90000 |     244     1060     3214 |    14090    24509     11 |  0.002 % | 44 2045 | 0 0.8 (0.8) 1.4 (1.4) 5 (5-10) 15000 0.02
c |     95000 |     244     1060     3214 |    14770    15621     11 |  0.002 % | 44 2159 | 0 0.8 (0.8) 1.4 (1.4) 5 (5-10) 15000 0.02
c |    100000 |     244     1060     3214 |    15432    20203     11 |  0.002 % | 48 2083 | 0 0.8 (0.8) 1.4 (1.4) 5 (5-10) 15000 0.02
c |    105000 |     244     1060     3214 |    16322    24549     11 |  0.003 % | 51 2058 | 0 0.8 (0.8) 1.4 (1.4) 5 (5-10) 15000 0.02
c |    110000 |     244     1060     3214 |    16962    15795     10 |  0.002 % | 61 1803 | 0 0.8 (0.8) 1.4 (1.4) 5 (5-10) 15000 0.02
c |    115000 |     244     1060     3214 |    17834    20198     11 |  0.003 % | 61 1885 | 0 0.8 (0.8) 1.4 (1.4) 5 (5-10) 15000 0.02
c |    120000 |     244     1060     3214 |    18494    24739     11 |  0.002 % | 63 1904 | 0 0.8 (0.8) 1.4 (1.4) 5 (5-10) 15000 0.02
c |    125000 |     244     1060     3214 |    19426    15653     10 |  0.003 % | 63 1984 | 0 0.8 (0.8) 1.4 (1.4) 5 (5-10) 15000 0.02
c |    130000 |     244     1060     3214 |    20164    20129     11 |  0.003 % | 64 2031 | 0 0.8 (0.8) 1.4 (1.4) 5 (5-10) 15000 0.02
c ===============================================================================
c restarts              : 68
c conflicts             : 131724         (36755 /sec)
c decisions             : 152551         (0.00 % random) (42567 /sec)
c propagations          : 5399606        (1506665 /sec)
c conflict literals     : 1675146        (28.78 % deleted)
c Memory used           : 12.00 MB
c CPU time              : 3.58381 s
c 
s UNKNOWN
